33D32945 STP File, STP Format Version 1.0

SECTION Result
Length 13
Time 196,655685
Algorithm HAKIMI
END

SECTION Comment
Name "full_30"
END

SECTION Graph
Nodes 30
Edges 435
E 25 24 17
E 25 23 5
E 16 4 20
E 16 3 12
E 16 2 11
E 16 1 12
E 25 20 3
E 25 22 2
E 25 21 12
E 28 9 15
E 14 13 7
E 28 8 11
E 14 12 16
E 28 7 17
E 28 6 14
E 28 5 11
E 28 4 4
E 14 11 19
E 14 10 1
E 27 4 18
E 27 3 18
E 27 2 2
E 27 1 2
E 16 9 7
E 16 8 9
E 16 7 9
E 16 6 1
E 16 5 10
E 15 5 3
E 15 4 9
E 15 3 5
E 15 2 16
E 15 1 12
E 27 9 18
E 27 8 7
E 27 7 7
E 27 6 8
E 27 5 4
E 25 13 11
E 25 12 9
E 25 15 10
E 25 14 19
E 25 17 2
E 25 16 16
E 25 19 14
E 25 18 9
E 26 5 5
E 26 4 7
E 26 3 19
E 26 2 13
E 26 1 1
E 25 11 17
E 25 10 19
E 15 9 9
E 15 8 16
E 15 7 2
E 15 6 20
E 24 12 1
E 24 11 8
E 24 14 10
E 24 13 19
E 24 16 9
E 24 15 19
E 24 18 9
E 24 17 4
E 14 6 14
E 14 5 14
E 14 4 7
E 14 3 3
E 14 2 16
E 14 1 14
E 24 10 3
E 26 9 13
E 26 8 3
E 26 7 14
E 26 6 9
E 24 23 13
E 24 22 2
E 25 6 9
E 25 5 11
E 25 4 9
E 25 3 7
E 25 2 6
E 25 1 13
E 24 21 15
E 24 20 13
E 13 11 4
E 13 12 17
E 14 9 7
E 14 8 3
E 14 7 7
E 24 19 1
E 13 10 12
E 23 21 2
E 23 22 15
E 13 7 2
E 13 6 7
E 13 5 12
E 13 4 11
E 13 3 13
E 13 2 11
E 13 1 5
E 23 20 9
E 12 10 9
E 12 11 17
E 25 9 17
E 25 8 18
E 25 7 12
E 23 18 9
E 23 19 10
E 24 7 15
E 24 6 14
E 24 5 1
E 24 4 5
E 24 3 7
E 24 2 8
E 24 1 14
E 13 9 1
E 13 8 1
E 28 17 16
E 28 18 17
E 28 15 11
E 28 16 1
E 28 19 17
E 12 8 7
E 12 7 4
E 28 10 1
E 12 6 2
E 12 5 19
E 12 4 16
E 28 13 16
E 12 3 18
E 28 14 16
E 12 2 2
E 28 11 14
E 12 1 3
E 28 12 9
E 24 9 7
E 24 8 12
E 28 26 17
E 28 27 17
E 23 8 1
E 28 20 1
E 23 7 11
E 28 21 13
E 23 6 4
E 23 5 17
E 23 4 6
E 28 24 19
E 23 3 12
E 28 25 19
E 23 2 19
E 28 22 20
E 23 1 19
E 28 23 12
E 9 1 3
E 9 2 5
E 9 3 13
E 9 4 13
E 9 5 19
E 17 15 18
E 9 6 2
E 17 16 7
E 9 7 7
E 9 8 9
E 12 9 2
E 17 11 7
E 17 12 13
E 17 13 8
E 17 14 11
E 17 10 10
E 11 1 3
E 27 25 2
E 27 26 1
E 11 9 5
E 11 8 20
E 27 20 19
E 11 7 1
E 11 6 2
E 11 5 6
E 27 23 6
E 11 4 9
E 27 24 18
E 11 3 2
E 27 21 12
E 11 2 8
E 27 22 11
E 16 15 2
E 16 14 3
E 23 9 13
E 16 13 15
E 16 12 6
E 16 11 13
E 16 10 4
E 22 1 13
E 22 9 1
E 22 8 15
E 22 7 15
E 22 6 5
E 22 5 5
E 22 4 15
E 22 3 8
E 8 1 19
E 22 2 15
E 8 2 2
E 8 3 8
E 8 4 8
E 8 5 7
E 8 6 16
E 8 7 3
E 10 2 5
E 10 1 18
E 10 9 6
E 10 8 19
E 10 7 11
E 10 6 7
E 10 5 9
E 10 4 5
E 10 3 2
E 21 2 20
E 27 16 17
E 21 1 2
E 27 17 9
E 27 14 13
E 27 15 2
E 27 18 20
E 27 19 8
E 21 9 7
E 21 8 3
E 21 7 1
E 21 6 20
E 27 12 12
E 21 5 6
E 27 13 6
E 7 1 5
E 21 4 13
E 27 10 3
E 7 2 14
E 21 3 9
E 27 11 10
E 7 3 15
E 7 4 16
E 7 5 4
E 7 6 8
E 26 15 2
E 26 16 11
E 26 13 9
E 26 14 15
E 26 19 5
E 26 17 15
E 26 18 1
E 26 11 8
E 26 12 9
E 26 10 12
E 20 3 17
E 20 2 5
E 20 1 11
E 26 24 8
E 26 25 5
E 20 9 3
E 20 8 16
E 20 7 6
E 26 22 6
E 6 1 16
E 20 6 17
E 26 23 7
E 6 2 2
E 20 5 17
E 26 20 19
E 6 3 14
E 20 4 17
E 26 21 1
E 6 4 5
E 6 5 13
E 15 14 2
E 15 13 7
E 15 12 2
E 15 11 16
E 15 10 6
E 20 14 5
E 20 13 11
E 20 12 12
E 20 11 5
E 20 10 14
E 5 1 9
E 5 2 4
E 5 3 6
E 5 4 7
E 20 19 7
E 20 18 20
E 20 17 20
E 20 16 20
E 20 15 3
E 30 4 5
E 30 3 3
E 30 2 13
E 30 1 16
E 30 9 9
E 30 8 20
E 30 7 14
E 30 6 1
E 30 5 8
E 30 29 13
E 30 26 3
E 30 25 1
E 30 28 10
E 30 27 18
E 4 1 17
E 4 2 13
E 4 3 3
E 19 18 20
E 19 17 12
E 19 14 2
E 19 13 14
E 19 16 2
E 19 15 17
E 19 10 6
E 19 12 16
E 19 11 7
E 30 19 10
E 30 18 11
E 29 28 16
E 29 27 15
E 30 15 20
E 30 14 20
E 30 17 11
E 30 16 18
E 29 22 20
E 29 21 16
E 29 20 15
E 29 26 1
E 29 25 12
E 29 24 18
E 29 23 18
E 18 16 15
E 18 17 3
E 18 12 11
E 30 22 18
E 18 13 12
E 30 21 18
E 18 14 3
E 30 24 12
E 18 15 14
E 30 23 1
E 18 10 9
E 30 20 4
E 18 11 9
E 3 1 6
E 3 2 17
E 30 11 7
E 30 10 19
E 30 13 3
E 30 12 10
E 29 19 3
E 29 18 5
E 29 17 7
E 29 16 6
E 29 11 8
E 2 1 13
E 29 10 12
E 29 15 3
E 29 14 16
E 29 13 13
E 29 12 4
E 23 10 1
E 23 11 7
E 23 12 13
E 23 13 8
E 23 14 9
E 23 15 10
E 23 16 1
E 23 17 7
E 22 10 20
E 22 11 13
E 22 12 12
E 22 13 15
E 22 14 17
E 22 15 4
E 22 16 18
E 19 1 14
E 22 20 11
E 22 21 4
E 19 9 19
E 11 10 9
E 19 8 14
E 19 7 14
E 19 6 9
E 19 5 12
E 19 4 8
E 19 3 17
E 19 2 11
E 22 17 18
E 22 18 12
E 22 19 12
E 18 2 13
E 18 1 7
E 21 20 17
E 21 19 3
E 21 18 12
E 21 17 14
E 21 16 6
E 29 2 11
E 29 1 12
E 18 9 1
E 18 8 20
E 18 7 7
E 18 6 8
E 18 5 15
E 18 4 7
E 18 3 19
E 17 3 1
E 17 2 17
E 17 1 1
E 29 9 5
E 29 8 17
E 29 7 10
E 29 6 8
E 29 5 13
E 29 4 4
E 29 3 14
E 28 3 18
E 21 15 9
E 28 2 13
E 21 14 6
E 28 1 14
E 21 13 14
E 21 12 7
E 21 11 12
E 21 10 15
E 17 9 1
E 17 8 16
E 17 7 19
E 17 6 16
E 17 5 12
E 17 4 8
END

SECTION Terminals
Terminals 10
T 1
T 6
T 9
T 10
T 12
T 15
T 17
T 22
T 23
T 28
END

SECTION Solution
S 9 6 2
S 17 1 1
S 28 16 1
S 16 6 1
S 28 10 1
S 22 9 1
S 23 16 1
S 12 9 2
S 17 9 1
S 16 15 2
END

EOF
